Route #1: 12 45 52 22 54 55 56 15 58
Route #2: 13 28 5 21 25 63
Route #3: 48 30 61 62 9
Route #4: 57 3 60 64 6 34 40
Route #5: 53 44 42 36 39 46
Route #6: 4 1 49 35 19 20 11
Route #7: 14 50 7 29 24 59 16
Route #8: 51 8 23 37 65 32
Route #9: 17 38 10 27 43 41 66 2
Route #10: 31 18 26 33 47
Cost 1130